p cnf 391 1560
c p weight 160 0 0
c p weight -160 1 0
c p weight 161 1.0 0
c p weight -161 1 0
156 -155 153 0
156 -155 154 0
-156 155 153 0
-156 155 154 0
156 155 -153 -154 0
-156 -155 -153 -154 0
157 153 -154 0
157 -153 154 0
-157 153 154 0
-157 -153 -154 0
158 159 -156 0
158 -156 157 0
-158 159 156 0
-158 156 157 0
158 -156 -153 0
-158 156 -153 0
158 -159 156 153 -157 0
-158 -159 -156 153 -157 0
159 -153 157 0
-159 153 157 0
-160 157 0
159 -160 -153 0
-159 -160 153 0
159 160 153 -157 0
-159 160 -153 -157 0
-161 157 0
159 -161 153 0
-159 -161 -153 0
159 161 -153 -157 0
-159 161 153 -157 0
162 -158 159 0
162 -158 157 0
-162 158 159 0
-162 158 157 0
162 158 -159 -157 0
-162 -158 -159 -157 0
163 159 -157 0
163 -159 157 0
-163 159 157 0
-163 -159 -157 0
164 -162 159 0
164 -162 152 0
-164 162 159 0
-164 162 152 0
164 -162 151 -163 0
164 -162 -151 163 0
-164 162 151 -163 0
-164 162 -151 163 0
164 162 -159 151 163 -152 0
164 162 -159 -151 -163 -152 0
-164 -162 -159 151 163 -152 0
-164 -162 -159 -151 -163 -152 0
166 159 -151 0
166 -159 151 0
-166 159 151 0
-166 -159 -151 0
165 163 -152 0
165 -163 152 0
-165 163 152 0
-165 -163 -152 0
167 -164 166 0
167 -164 150 0
-167 164 166 0
-167 164 150 0
167 -164 149 -152 0
167 -164 -149 152 0
-167 164 149 -152 0
-167 164 -149 152 0
167 164 -166 149 152 -150 0
167 164 -166 -149 -152 -150 0
-167 -164 -166 149 152 -150 0
-167 -164 -166 -149 -152 -150 0
169 166 -149 0
169 -166 149 0
-169 166 149 0
-169 -166 -149 0
168 152 -150 0
168 -152 150 0
-168 152 150 0
-168 -152 -150 0
170 -167 169 0
170 -167 148 0
-170 167 169 0
-170 167 148 0
170 -167 147 -150 0
170 -167 -147 150 0
-170 167 147 -150 0
-170 167 -147 150 0
170 167 -169 147 150 -148 0
170 167 -169 -147 -150 -148 0
-170 -167 -169 147 150 -148 0
-170 -167 -169 -147 -150 -148 0
172 169 -147 0
172 -169 147 0
-172 169 147 0
-172 -169 -147 0
171 150 -148 0
171 -150 148 0
-171 150 148 0
-171 -150 -148 0
173 -170 172 0
173 -170 146 0
-173 170 172 0
-173 170 146 0
173 -170 145 -148 0
173 -170 -145 148 0
-173 170 145 -148 0
-173 170 -145 148 0
173 170 -172 145 148 -146 0
173 170 -172 -145 -148 -146 0
-173 -170 -172 145 148 -146 0
-173 -170 -172 -145 -148 -146 0
175 172 -145 0
175 -172 145 0
-175 172 145 0
-175 -172 -145 0
174 148 -146 0
174 -148 146 0
-174 148 146 0
-174 -148 -146 0
176 -173 175 0
176 -173 144 0
-176 173 175 0
-176 173 144 0
176 -173 143 -146 0
176 -173 -143 146 0
-176 173 143 -146 0
-176 173 -143 146 0
176 173 -175 143 146 -144 0
176 173 -175 -143 -146 -144 0
-176 -173 -175 143 146 -144 0
-176 -173 -175 -143 -146 -144 0
178 175 -143 0
178 -175 143 0
-178 175 143 0
-178 -175 -143 0
177 146 -144 0
177 -146 144 0
-177 146 144 0
-177 -146 -144 0
179 -176 178 0
179 -176 142 0
-179 176 178 0
-179 176 142 0
179 -176 141 -144 0
179 -176 -141 144 0
-179 176 141 -144 0
-179 176 -141 144 0
179 176 -178 141 144 -142 0
179 176 -178 -141 -144 -142 0
-179 -176 -178 141 144 -142 0
-179 -176 -178 -141 -144 -142 0
181 178 -141 0
181 -178 141 0
-181 178 141 0
-181 -178 -141 0
180 144 -142 0
180 -144 142 0
-180 144 142 0
-180 -144 -142 0
182 -179 181 0
182 -179 140 0
-182 179 181 0
-182 179 140 0
182 -179 139 -142 0
182 -179 -139 142 0
-182 179 139 -142 0
-182 179 -139 142 0
182 179 -181 139 142 -140 0
182 179 -181 -139 -142 -140 0
-182 -179 -181 139 142 -140 0
-182 -179 -181 -139 -142 -140 0
184 181 -139 0
184 -181 139 0
-184 181 139 0
-184 -181 -139 0
183 142 -140 0
183 -142 140 0
-183 142 140 0
-183 -142 -140 0
185 -182 184 0
185 -182 138 0
-185 182 184 0
-185 182 138 0
185 -182 137 -140 0
185 -182 -137 140 0
-185 182 137 -140 0
-185 182 -137 140 0
185 182 -184 137 140 -138 0
185 182 -184 -137 -140 -138 0
-185 -182 -184 137 140 -138 0
-185 -182 -184 -137 -140 -138 0
187 184 -137 0
187 -184 137 0
-187 184 137 0
-187 -184 -137 0
186 140 -138 0
186 -140 138 0
-186 140 138 0
-186 -140 -138 0
188 -185 187 0
188 -185 136 0
-188 185 187 0
-188 185 136 0
188 -185 135 -138 0
188 -185 -135 138 0
-188 185 135 -138 0
-188 185 -135 138 0
188 185 -187 135 138 -136 0
188 185 -187 -135 -138 -136 0
-188 -185 -187 135 138 -136 0
-188 -185 -187 -135 -138 -136 0
190 187 -135 0
190 -187 135 0
-190 187 135 0
-190 -187 -135 0
189 138 -136 0
189 -138 136 0
-189 138 136 0
-189 -138 -136 0
191 -188 190 0
191 -188 134 0
-191 188 190 0
-191 188 134 0
191 -188 133 -136 0
191 -188 -133 136 0
-191 188 133 -136 0
-191 188 -133 136 0
191 188 -190 133 136 -134 0
191 188 -190 -133 -136 -134 0
-191 -188 -190 133 136 -134 0
-191 -188 -190 -133 -136 -134 0
193 190 -133 0
193 -190 133 0
-193 190 133 0
-193 -190 -133 0
192 136 -134 0
192 -136 134 0
-192 136 134 0
-192 -136 -134 0
194 -191 193 0
194 -191 132 0
-194 191 193 0
-194 191 132 0
194 -191 131 -134 0
194 -191 -131 134 0
-194 191 131 -134 0
-194 191 -131 134 0
194 191 -193 131 134 -132 0
194 191 -193 -131 -134 -132 0
-194 -191 -193 131 134 -132 0
-194 -191 -193 -131 -134 -132 0
196 193 -131 0
196 -193 131 0
-196 193 131 0
-196 -193 -131 0
195 134 -132 0
195 -134 132 0
-195 134 132 0
-195 -134 -132 0
197 -194 196 0
197 -194 130 0
-197 194 196 0
-197 194 130 0
197 -194 129 -132 0
197 -194 -129 132 0
-197 194 129 -132 0
-197 194 -129 132 0
197 194 -196 129 132 -130 0
197 194 -196 -129 -132 -130 0
-197 -194 -196 129 132 -130 0
-197 -194 -196 -129 -132 -130 0
199 196 -129 0
199 -196 129 0
-199 196 129 0
-199 -196 -129 0
198 132 -130 0
198 -132 130 0
-198 132 130 0
-198 -132 -130 0
200 -197 199 0
200 -197 128 0
-200 197 199 0
-200 197 128 0
200 -197 127 -130 0
200 -197 -127 130 0
-200 197 127 -130 0
-200 197 -127 130 0
200 197 -199 127 130 -128 0
200 197 -199 -127 -130 -128 0
-200 -197 -199 127 130 -128 0
-200 -197 -199 -127 -130 -128 0
202 199 -127 0
202 -199 127 0
-202 199 127 0
-202 -199 -127 0
201 130 -128 0
201 -130 128 0
-201 130 128 0
-201 -130 -128 0
203 -200 202 0
203 -200 126 0
-203 200 202 0
-203 200 126 0
203 -200 125 -128 0
203 -200 -125 128 0
-203 200 125 -128 0
-203 200 -125 128 0
203 200 -202 125 128 -126 0
203 200 -202 -125 -128 -126 0
-203 -200 -202 125 128 -126 0
-203 -200 -202 -125 -128 -126 0
205 202 -125 0
205 -202 125 0
-205 202 125 0
-205 -202 -125 0
204 128 -126 0
204 -128 126 0
-204 128 126 0
-204 -128 -126 0
206 -203 205 0
206 -203 124 0
-206 203 205 0
-206 203 124 0
206 -203 123 -126 0
206 -203 -123 126 0
-206 203 123 -126 0
-206 203 -123 126 0
206 203 -205 123 126 -124 0
206 203 -205 -123 -126 -124 0
-206 -203 -205 123 126 -124 0
-206 -203 -205 -123 -126 -124 0
208 205 -123 0
208 -205 123 0
-208 205 123 0
-208 -205 -123 0
207 126 -124 0
207 -126 124 0
-207 126 124 0
-207 -126 -124 0
209 -206 208 0
209 -206 122 0
-209 206 208 0
-209 206 122 0
209 -206 121 -124 0
209 -206 -121 124 0
-209 206 121 -124 0
-209 206 -121 124 0
209 206 -208 121 124 -122 0
209 206 -208 -121 -124 -122 0
-209 -206 -208 121 124 -122 0
-209 -206 -208 -121 -124 -122 0
211 208 -121 0
211 -208 121 0
-211 208 121 0
-211 -208 -121 0
210 124 -122 0
210 -124 122 0
-210 124 122 0
-210 -124 -122 0
212 -209 211 0
212 -209 120 0
-212 209 211 0
-212 209 120 0
212 -209 119 -122 0
212 -209 -119 122 0
-212 209 119 -122 0
-212 209 -119 122 0
212 209 -211 119 122 -120 0
212 209 -211 -119 -122 -120 0
-212 -209 -211 119 122 -120 0
-212 -209 -211 -119 -122 -120 0
214 211 -119 0
214 -211 119 0
-214 211 119 0
-214 -211 -119 0
213 122 -120 0
213 -122 120 0
-213 122 120 0
-213 -122 -120 0
215 -212 214 0
215 -212 118 0
-215 212 214 0
-215 212 118 0
215 -212 117 -120 0
215 -212 -117 120 0
-215 212 117 -120 0
-215 212 -117 120 0
215 212 -214 117 120 -118 0
215 212 -214 -117 -120 -118 0
-215 -212 -214 117 120 -118 0
-215 -212 -214 -117 -120 -118 0
217 214 -117 0
217 -214 117 0
-217 214 117 0
-217 -214 -117 0
216 120 -118 0
216 -120 118 0
-216 120 118 0
-216 -120 -118 0
218 -215 217 0
218 -215 116 0
-218 215 217 0
-218 215 116 0
218 -215 115 -118 0
218 -215 -115 118 0
-218 215 115 -118 0
-218 215 -115 118 0
218 215 -217 115 118 -116 0
218 215 -217 -115 -118 -116 0
-218 -215 -217 115 118 -116 0
-218 -215 -217 -115 -118 -116 0
220 217 -115 0
220 -217 115 0
-220 217 115 0
-220 -217 -115 0
219 118 -116 0
219 -118 116 0
-219 118 116 0
-219 -118 -116 0
221 -218 220 0
221 -218 114 0
-221 218 220 0
-221 218 114 0
221 -218 113 -116 0
221 -218 -113 116 0
-221 218 113 -116 0
-221 218 -113 116 0
221 218 -220 113 116 -114 0
221 218 -220 -113 -116 -114 0
-221 -218 -220 113 116 -114 0
-221 -218 -220 -113 -116 -114 0
223 220 -113 0
223 -220 113 0
-223 220 113 0
-223 -220 -113 0
222 116 -114 0
222 -116 114 0
-222 116 114 0
-222 -116 -114 0
224 -221 223 0
224 -221 112 0
-224 221 223 0
-224 221 112 0
224 -221 111 -114 0
224 -221 -111 114 0
-224 221 111 -114 0
-224 221 -111 114 0
224 221 -223 111 114 -112 0
224 221 -223 -111 -114 -112 0
-224 -221 -223 111 114 -112 0
-224 -221 -223 -111 -114 -112 0
226 223 -111 0
226 -223 111 0
-226 223 111 0
-226 -223 -111 0
225 114 -112 0
225 -114 112 0
-225 114 112 0
-225 -114 -112 0
227 -224 226 0
227 -224 110 0
-227 224 226 0
-227 224 110 0
227 -224 109 -112 0
227 -224 -109 112 0
-227 224 109 -112 0
-227 224 -109 112 0
227 224 -226 109 112 -110 0
227 224 -226 -109 -112 -110 0
-227 -224 -226 109 112 -110 0
-227 -224 -226 -109 -112 -110 0
229 226 -109 0
229 -226 109 0
-229 226 109 0
-229 -226 -109 0
228 112 -110 0
228 -112 110 0
-228 112 110 0
-228 -112 -110 0
230 -227 229 0
230 -227 108 0
-230 227 229 0
-230 227 108 0
230 -227 107 -110 0
230 -227 -107 110 0
-230 227 107 -110 0
-230 227 -107 110 0
230 227 -229 107 110 -108 0
230 227 -229 -107 -110 -108 0
-230 -227 -229 107 110 -108 0
-230 -227 -229 -107 -110 -108 0
232 229 -107 0
232 -229 107 0
-232 229 107 0
-232 -229 -107 0
231 110 -108 0
231 -110 108 0
-231 110 108 0
-231 -110 -108 0
233 -230 232 0
233 -230 106 0
-233 230 232 0
-233 230 106 0
233 -230 105 -108 0
233 -230 -105 108 0
-233 230 105 -108 0
-233 230 -105 108 0
233 230 -232 105 108 -106 0
233 230 -232 -105 -108 -106 0
-233 -230 -232 105 108 -106 0
-233 -230 -232 -105 -108 -106 0
235 232 -105 0
235 -232 105 0
-235 232 105 0
-235 -232 -105 0
234 108 -106 0
234 -108 106 0
-234 108 106 0
-234 -108 -106 0
236 -233 235 0
236 -233 104 0
-236 233 235 0
-236 233 104 0
236 -233 103 -106 0
236 -233 -103 106 0
-236 233 103 -106 0
-236 233 -103 106 0
236 233 -235 103 106 -104 0
236 233 -235 -103 -106 -104 0
-236 -233 -235 103 106 -104 0
-236 -233 -235 -103 -106 -104 0
238 235 -103 0
238 -235 103 0
-238 235 103 0
-238 -235 -103 0
237 106 -104 0
237 -106 104 0
-237 106 104 0
-237 -106 -104 0
239 -236 238 0
239 -236 102 0
-239 236 238 0
-239 236 102 0
239 -236 101 -104 0
239 -236 -101 104 0
-239 236 101 -104 0
-239 236 -101 104 0
239 236 -238 101 104 -102 0
239 236 -238 -101 -104 -102 0
-239 -236 -238 101 104 -102 0
-239 -236 -238 -101 -104 -102 0
241 238 -101 0
241 -238 101 0
-241 238 101 0
-241 -238 -101 0
240 104 -102 0
240 -104 102 0
-240 104 102 0
-240 -104 -102 0
242 -239 241 0
242 -239 100 0
-242 239 241 0
-242 239 100 0
242 -239 99 -102 0
242 -239 -99 102 0
-242 239 99 -102 0
-242 239 -99 102 0
242 239 -241 99 102 -100 0
242 239 -241 -99 -102 -100 0
-242 -239 -241 99 102 -100 0
-242 -239 -241 -99 -102 -100 0
244 241 -99 0
244 -241 99 0
-244 241 99 0
-244 -241 -99 0
243 102 -100 0
243 -102 100 0
-243 102 100 0
-243 -102 -100 0
245 -242 244 0
245 -242 98 0
-245 242 244 0
-245 242 98 0
245 -242 97 -100 0
245 -242 -97 100 0
-245 242 97 -100 0
-245 242 -97 100 0
245 242 -244 97 100 -98 0
245 242 -244 -97 -100 -98 0
-245 -242 -244 97 100 -98 0
-245 -242 -244 -97 -100 -98 0
247 244 -97 0
247 -244 97 0
-247 244 97 0
-247 -244 -97 0
246 100 -98 0
246 -100 98 0
-246 100 98 0
-246 -100 -98 0
248 -245 247 0
248 -245 96 0
-248 245 247 0
-248 245 96 0
248 -245 95 -98 0
248 -245 -95 98 0
-248 245 95 -98 0
-248 245 -95 98 0
248 245 -247 95 98 -96 0
248 245 -247 -95 -98 -96 0
-248 -245 -247 95 98 -96 0
-248 -245 -247 -95 -98 -96 0
250 247 -95 0
250 -247 95 0
-250 247 95 0
-250 -247 -95 0
249 98 -96 0
249 -98 96 0
-249 98 96 0
-249 -98 -96 0
251 -248 250 0
251 -248 94 0
-251 248 250 0
-251 248 94 0
251 -248 93 -96 0
251 -248 -93 96 0
-251 248 93 -96 0
-251 248 -93 96 0
251 248 -250 93 96 -94 0
251 248 -250 -93 -96 -94 0
-251 -248 -250 93 96 -94 0
-251 -248 -250 -93 -96 -94 0
253 250 -93 0
253 -250 93 0
-253 250 93 0
-253 -250 -93 0
252 96 -94 0
252 -96 94 0
-252 96 94 0
-252 -96 -94 0
254 -251 253 0
254 -251 92 0
-254 251 253 0
-254 251 92 0
254 -251 91 -94 0
254 -251 -91 94 0
-254 251 91 -94 0
-254 251 -91 94 0
254 251 -253 91 94 -92 0
254 251 -253 -91 -94 -92 0
-254 -251 -253 91 94 -92 0
-254 -251 -253 -91 -94 -92 0
256 253 -91 0
256 -253 91 0
-256 253 91 0
-256 -253 -91 0
255 94 -92 0
255 -94 92 0
-255 94 92 0
-255 -94 -92 0
257 -254 256 0
257 -254 90 0
-257 254 256 0
-257 254 90 0
257 -254 89 -92 0
257 -254 -89 92 0
-257 254 89 -92 0
-257 254 -89 92 0
257 254 -256 89 92 -90 0
257 254 -256 -89 -92 -90 0
-257 -254 -256 89 92 -90 0
-257 -254 -256 -89 -92 -90 0
259 256 -89 0
259 -256 89 0
-259 256 89 0
-259 -256 -89 0
258 92 -90 0
258 -92 90 0
-258 92 90 0
-258 -92 -90 0
260 -257 259 0
260 -257 88 0
-260 257 259 0
-260 257 88 0
260 -257 87 -90 0
260 -257 -87 90 0
-260 257 87 -90 0
-260 257 -87 90 0
260 257 -259 87 90 -88 0
260 257 -259 -87 -90 -88 0
-260 -257 -259 87 90 -88 0
-260 -257 -259 -87 -90 -88 0
262 259 -87 0
262 -259 87 0
-262 259 87 0
-262 -259 -87 0
261 90 -88 0
261 -90 88 0
-261 90 88 0
-261 -90 -88 0
263 -260 262 0
263 -260 86 0
-263 260 262 0
-263 260 86 0
263 -260 85 -88 0
263 -260 -85 88 0
-263 260 85 -88 0
-263 260 -85 88 0
263 260 -262 85 88 -86 0
263 260 -262 -85 -88 -86 0
-263 -260 -262 85 88 -86 0
-263 -260 -262 -85 -88 -86 0
265 262 -85 0
265 -262 85 0
-265 262 85 0
-265 -262 -85 0
264 88 -86 0
264 -88 86 0
-264 88 86 0
-264 -88 -86 0
266 -263 265 0
266 -263 84 0
-266 263 265 0
-266 263 84 0
266 -263 83 -86 0
266 -263 -83 86 0
-266 263 83 -86 0
-266 263 -83 86 0
266 263 -265 83 86 -84 0
266 263 -265 -83 -86 -84 0
-266 -263 -265 83 86 -84 0
-266 -263 -265 -83 -86 -84 0
268 265 -83 0
268 -265 83 0
-268 265 83 0
-268 -265 -83 0
267 86 -84 0
267 -86 84 0
-267 86 84 0
-267 -86 -84 0
269 -266 268 0
269 -266 82 0
-269 266 268 0
-269 266 82 0
269 -266 81 -84 0
269 -266 -81 84 0
-269 266 81 -84 0
-269 266 -81 84 0
269 266 -268 81 84 -82 0
269 266 -268 -81 -84 -82 0
-269 -266 -268 81 84 -82 0
-269 -266 -268 -81 -84 -82 0
271 268 -81 0
271 -268 81 0
-271 268 81 0
-271 -268 -81 0
270 84 -82 0
270 -84 82 0
-270 84 82 0
-270 -84 -82 0
272 -269 271 0
272 -269 80 0
-272 269 271 0
-272 269 80 0
272 -269 79 -82 0
272 -269 -79 82 0
-272 269 79 -82 0
-272 269 -79 82 0
272 269 -271 79 82 -80 0
272 269 -271 -79 -82 -80 0
-272 -269 -271 79 82 -80 0
-272 -269 -271 -79 -82 -80 0
274 271 -79 0
274 -271 79 0
-274 271 79 0
-274 -271 -79 0
273 82 -80 0
273 -82 80 0
-273 82 80 0
-273 -82 -80 0
275 -272 274 0
275 -272 78 0
-275 272 274 0
-275 272 78 0
275 -272 77 -80 0
275 -272 -77 80 0
-275 272 77 -80 0
-275 272 -77 80 0
275 272 -274 77 80 -78 0
275 272 -274 -77 -80 -78 0
-275 -272 -274 77 80 -78 0
-275 -272 -274 -77 -80 -78 0
277 274 -77 0
277 -274 77 0
-277 274 77 0
-277 -274 -77 0
276 80 -78 0
276 -80 78 0
-276 80 78 0
-276 -80 -78 0
278 -275 277 0
278 -275 76 0
-278 275 277 0
-278 275 76 0
278 -275 75 -78 0
278 -275 -75 78 0
-278 275 75 -78 0
-278 275 -75 78 0
278 275 -277 75 78 -76 0
278 275 -277 -75 -78 -76 0
-278 -275 -277 75 78 -76 0
-278 -275 -277 -75 -78 -76 0
280 277 -75 0
280 -277 75 0
-280 277 75 0
-280 -277 -75 0
279 78 -76 0
279 -78 76 0
-279 78 76 0
-279 -78 -76 0
281 -278 280 0
281 -278 74 0
-281 278 280 0
-281 278 74 0
281 -278 73 -76 0
281 -278 -73 76 0
-281 278 73 -76 0
-281 278 -73 76 0
281 278 -280 73 76 -74 0
281 278 -280 -73 -76 -74 0
-281 -278 -280 73 76 -74 0
-281 -278 -280 -73 -76 -74 0
283 280 -73 0
283 -280 73 0
-283 280 73 0
-283 -280 -73 0
282 76 -74 0
282 -76 74 0
-282 76 74 0
-282 -76 -74 0
284 -281 283 0
284 -281 72 0
-284 281 283 0
-284 281 72 0
284 -281 71 -74 0
284 -281 -71 74 0
-284 281 71 -74 0
-284 281 -71 74 0
284 281 -283 71 74 -72 0
284 281 -283 -71 -74 -72 0
-284 -281 -283 71 74 -72 0
-284 -281 -283 -71 -74 -72 0
286 283 -71 0
286 -283 71 0
-286 283 71 0
-286 -283 -71 0
285 74 -72 0
285 -74 72 0
-285 74 72 0
-285 -74 -72 0
287 -284 286 0
287 -284 70 0
-287 284 286 0
-287 284 70 0
287 -284 69 -72 0
287 -284 -69 72 0
-287 284 69 -72 0
-287 284 -69 72 0
287 284 -286 69 72 -70 0
287 284 -286 -69 -72 -70 0
-287 -284 -286 69 72 -70 0
-287 -284 -286 -69 -72 -70 0
289 286 -69 0
289 -286 69 0
-289 286 69 0
-289 -286 -69 0
288 72 -70 0
288 -72 70 0
-288 72 70 0
-288 -72 -70 0
290 -287 289 0
290 -287 68 0
-290 287 289 0
-290 287 68 0
290 -287 67 -70 0
290 -287 -67 70 0
-290 287 67 -70 0
-290 287 -67 70 0
290 287 -289 67 70 -68 0
290 287 -289 -67 -70 -68 0
-290 -287 -289 67 70 -68 0
-290 -287 -289 -67 -70 -68 0
292 289 -67 0
292 -289 67 0
-292 289 67 0
-292 -289 -67 0
291 70 -68 0
291 -70 68 0
-291 70 68 0
-291 -70 -68 0
293 -290 292 0
293 -290 66 0
-293 290 292 0
-293 290 66 0
293 -290 65 -68 0
293 -290 -65 68 0
-293 290 65 -68 0
-293 290 -65 68 0
293 290 -292 65 68 -66 0
293 290 -292 -65 -68 -66 0
-293 -290 -292 65 68 -66 0
-293 -290 -292 -65 -68 -66 0
295 292 -65 0
295 -292 65 0
-295 292 65 0
-295 -292 -65 0
294 68 -66 0
294 -68 66 0
-294 68 66 0
-294 -68 -66 0
296 -293 295 0
296 -293 64 0
-296 293 295 0
-296 293 64 0
296 -293 63 -66 0
296 -293 -63 66 0
-296 293 63 -66 0
-296 293 -63 66 0
296 293 -295 63 66 -64 0
296 293 -295 -63 -66 -64 0
-296 -293 -295 63 66 -64 0
-296 -293 -295 -63 -66 -64 0
298 295 -63 0
298 -295 63 0
-298 295 63 0
-298 -295 -63 0
297 66 -64 0
297 -66 64 0
-297 66 64 0
-297 -66 -64 0
299 -296 298 0
299 -296 62 0
-299 296 298 0
-299 296 62 0
299 -296 61 -64 0
299 -296 -61 64 0
-299 296 61 -64 0
-299 296 -61 64 0
299 296 -298 61 64 -62 0
299 296 -298 -61 -64 -62 0
-299 -296 -298 61 64 -62 0
-299 -296 -298 -61 -64 -62 0
301 298 -61 0
301 -298 61 0
-301 298 61 0
-301 -298 -61 0
300 64 -62 0
300 -64 62 0
-300 64 62 0
-300 -64 -62 0
302 -299 301 0
302 -299 60 0
-302 299 301 0
-302 299 60 0
302 -299 59 -62 0
302 -299 -59 62 0
-302 299 59 -62 0
-302 299 -59 62 0
302 299 -301 59 62 -60 0
302 299 -301 -59 -62 -60 0
-302 -299 -301 59 62 -60 0
-302 -299 -301 -59 -62 -60 0
304 301 -59 0
304 -301 59 0
-304 301 59 0
-304 -301 -59 0
303 62 -60 0
303 -62 60 0
-303 62 60 0
-303 -62 -60 0
305 -302 304 0
305 -302 58 0
-305 302 304 0
-305 302 58 0
305 -302 57 -60 0
305 -302 -57 60 0
-305 302 57 -60 0
-305 302 -57 60 0
305 302 -304 57 60 -58 0
305 302 -304 -57 -60 -58 0
-305 -302 -304 57 60 -58 0
-305 -302 -304 -57 -60 -58 0
307 304 -57 0
307 -304 57 0
-307 304 57 0
-307 -304 -57 0
306 60 -58 0
306 -60 58 0
-306 60 58 0
-306 -60 -58 0
308 -305 307 0
308 -305 56 0
-308 305 307 0
-308 305 56 0
308 -305 55 -58 0
308 -305 -55 58 0
-308 305 55 -58 0
-308 305 -55 58 0
308 305 -307 55 58 -56 0
308 305 -307 -55 -58 -56 0
-308 -305 -307 55 58 -56 0
-308 -305 -307 -55 -58 -56 0
310 307 -55 0
310 -307 55 0
-310 307 55 0
-310 -307 -55 0
309 58 -56 0
309 -58 56 0
-309 58 56 0
-309 -58 -56 0
311 -308 310 0
311 -308 54 0
-311 308 310 0
-311 308 54 0
311 -308 53 -56 0
311 -308 -53 56 0
-311 308 53 -56 0
-311 308 -53 56 0
311 308 -310 53 56 -54 0
311 308 -310 -53 -56 -54 0
-311 -308 -310 53 56 -54 0
-311 -308 -310 -53 -56 -54 0
313 310 -53 0
313 -310 53 0
-313 310 53 0
-313 -310 -53 0
312 56 -54 0
312 -56 54 0
-312 56 54 0
-312 -56 -54 0
314 -311 313 0
314 -311 52 0
-314 311 313 0
-314 311 52 0
314 -311 51 -54 0
314 -311 -51 54 0
-314 311 51 -54 0
-314 311 -51 54 0
314 311 -313 51 54 -52 0
314 311 -313 -51 -54 -52 0
-314 -311 -313 51 54 -52 0
-314 -311 -313 -51 -54 -52 0
316 313 -51 0
316 -313 51 0
-316 313 51 0
-316 -313 -51 0
315 54 -52 0
315 -54 52 0
-315 54 52 0
-315 -54 -52 0
317 -314 316 0
317 -314 50 0
-317 314 316 0
-317 314 50 0
317 -314 49 -52 0
317 -314 -49 52 0
-317 314 49 -52 0
-317 314 -49 52 0
317 314 -316 49 52 -50 0
317 314 -316 -49 -52 -50 0
-317 -314 -316 49 52 -50 0
-317 -314 -316 -49 -52 -50 0
319 316 -49 0
319 -316 49 0
-319 316 49 0
-319 -316 -49 0
318 52 -50 0
318 -52 50 0
-318 52 50 0
-318 -52 -50 0
320 -317 319 0
320 -317 48 0
-320 317 319 0
-320 317 48 0
320 -317 47 -50 0
320 -317 -47 50 0
-320 317 47 -50 0
-320 317 -47 50 0
320 317 -319 47 50 -48 0
320 317 -319 -47 -50 -48 0
-320 -317 -319 47 50 -48 0
-320 -317 -319 -47 -50 -48 0
322 319 -47 0
322 -319 47 0
-322 319 47 0
-322 -319 -47 0
321 50 -48 0
321 -50 48 0
-321 50 48 0
-321 -50 -48 0
323 -320 322 0
323 -320 46 0
-323 320 322 0
-323 320 46 0
323 -320 45 -48 0
323 -320 -45 48 0
-323 320 45 -48 0
-323 320 -45 48 0
323 320 -322 45 48 -46 0
323 320 -322 -45 -48 -46 0
-323 -320 -322 45 48 -46 0
-323 -320 -322 -45 -48 -46 0
325 322 -45 0
325 -322 45 0
-325 322 45 0
-325 -322 -45 0
324 48 -46 0
324 -48 46 0
-324 48 46 0
-324 -48 -46 0
326 -323 325 0
326 -323 44 0
-326 323 325 0
-326 323 44 0
326 -323 43 -46 0
326 -323 -43 46 0
-326 323 43 -46 0
-326 323 -43 46 0
326 323 -325 43 46 -44 0
326 323 -325 -43 -46 -44 0
-326 -323 -325 43 46 -44 0
-326 -323 -325 -43 -46 -44 0
328 325 -43 0
328 -325 43 0
-328 325 43 0
-328 -325 -43 0
327 46 -44 0
327 -46 44 0
-327 46 44 0
-327 -46 -44 0
329 -326 328 0
329 -326 42 0
-329 326 328 0
-329 326 42 0
329 -326 41 -44 0
329 -326 -41 44 0
-329 326 41 -44 0
-329 326 -41 44 0
329 326 -328 41 44 -42 0
329 326 -328 -41 -44 -42 0
-329 -326 -328 41 44 -42 0
-329 -326 -328 -41 -44 -42 0
331 328 -41 0
331 -328 41 0
-331 328 41 0
-331 -328 -41 0
330 44 -42 0
330 -44 42 0
-330 44 42 0
-330 -44 -42 0
332 -329 331 0
332 -329 40 0
-332 329 331 0
-332 329 40 0
332 -329 39 -42 0
332 -329 -39 42 0
-332 329 39 -42 0
-332 329 -39 42 0
332 329 -331 39 42 -40 0
332 329 -331 -39 -42 -40 0
-332 -329 -331 39 42 -40 0
-332 -329 -331 -39 -42 -40 0
334 331 -39 0
334 -331 39 0
-334 331 39 0
-334 -331 -39 0
333 42 -40 0
333 -42 40 0
-333 42 40 0
-333 -42 -40 0
335 -332 334 0
335 -332 38 0
-335 332 334 0
-335 332 38 0
335 -332 37 -40 0
335 -332 -37 40 0
-335 332 37 -40 0
-335 332 -37 40 0
335 332 -334 37 40 -38 0
335 332 -334 -37 -40 -38 0
-335 -332 -334 37 40 -38 0
-335 -332 -334 -37 -40 -38 0
337 334 -37 0
337 -334 37 0
-337 334 37 0
-337 -334 -37 0
336 40 -38 0
336 -40 38 0
-336 40 38 0
-336 -40 -38 0
338 -335 337 0
338 -335 36 0
-338 335 337 0
-338 335 36 0
338 -335 35 -38 0
338 -335 -35 38 0
-338 335 35 -38 0
-338 335 -35 38 0
338 335 -337 35 38 -36 0
338 335 -337 -35 -38 -36 0
-338 -335 -337 35 38 -36 0
-338 -335 -337 -35 -38 -36 0
340 337 -35 0
340 -337 35 0
-340 337 35 0
-340 -337 -35 0
339 38 -36 0
339 -38 36 0
-339 38 36 0
-339 -38 -36 0
341 -338 340 0
341 -338 34 0
-341 338 340 0
-341 338 34 0
341 -338 33 -36 0
341 -338 -33 36 0
-341 338 33 -36 0
-341 338 -33 36 0
341 338 -340 33 36 -34 0
341 338 -340 -33 -36 -34 0
-341 -338 -340 33 36 -34 0
-341 -338 -340 -33 -36 -34 0
343 340 -33 0
343 -340 33 0
-343 340 33 0
-343 -340 -33 0
342 36 -34 0
342 -36 34 0
-342 36 34 0
-342 -36 -34 0
344 -341 343 0
344 -341 32 0
-344 341 343 0
-344 341 32 0
344 -341 31 -34 0
344 -341 -31 34 0
-344 341 31 -34 0
-344 341 -31 34 0
344 341 -343 31 34 -32 0
344 341 -343 -31 -34 -32 0
-344 -341 -343 31 34 -32 0
-344 -341 -343 -31 -34 -32 0
346 343 -31 0
346 -343 31 0
-346 343 31 0
-346 -343 -31 0
345 34 -32 0
345 -34 32 0
-345 34 32 0
-345 -34 -32 0
347 -344 346 0
347 -344 30 0
-347 344 346 0
-347 344 30 0
347 -344 29 -32 0
347 -344 -29 32 0
-347 344 29 -32 0
-347 344 -29 32 0
347 344 -346 29 32 -30 0
347 344 -346 -29 -32 -30 0
-347 -344 -346 29 32 -30 0
-347 -344 -346 -29 -32 -30 0
349 346 -29 0
349 -346 29 0
-349 346 29 0
-349 -346 -29 0
348 32 -30 0
348 -32 30 0
-348 32 30 0
-348 -32 -30 0
350 -347 349 0
350 -347 28 0
-350 347 349 0
-350 347 28 0
350 -347 27 -30 0
350 -347 -27 30 0
-350 347 27 -30 0
-350 347 -27 30 0
350 347 -349 27 30 -28 0
350 347 -349 -27 -30 -28 0
-350 -347 -349 27 30 -28 0
-350 -347 -349 -27 -30 -28 0
352 349 -27 0
352 -349 27 0
-352 349 27 0
-352 -349 -27 0
351 30 -28 0
351 -30 28 0
-351 30 28 0
-351 -30 -28 0
353 -350 352 0
353 -350 26 0
-353 350 352 0
-353 350 26 0
353 -350 25 -28 0
353 -350 -25 28 0
-353 350 25 -28 0
-353 350 -25 28 0
353 350 -352 25 28 -26 0
353 350 -352 -25 -28 -26 0
-353 -350 -352 25 28 -26 0
-353 -350 -352 -25 -28 -26 0
355 352 -25 0
355 -352 25 0
-355 352 25 0
-355 -352 -25 0
354 28 -26 0
354 -28 26 0
-354 28 26 0
-354 -28 -26 0
356 -353 355 0
356 -353 24 0
-356 353 355 0
-356 353 24 0
356 -353 23 -26 0
356 -353 -23 26 0
-356 353 23 -26 0
-356 353 -23 26 0
356 353 -355 23 26 -24 0
356 353 -355 -23 -26 -24 0
-356 -353 -355 23 26 -24 0
-356 -353 -355 -23 -26 -24 0
358 355 -23 0
358 -355 23 0
-358 355 23 0
-358 -355 -23 0
357 26 -24 0
357 -26 24 0
-357 26 24 0
-357 -26 -24 0
359 -356 358 0
359 -356 22 0
-359 356 358 0
-359 356 22 0
359 -356 21 -24 0
359 -356 -21 24 0
-359 356 21 -24 0
-359 356 -21 24 0
359 356 -358 21 24 -22 0
359 356 -358 -21 -24 -22 0
-359 -356 -358 21 24 -22 0
-359 -356 -358 -21 -24 -22 0
361 358 -21 0
361 -358 21 0
-361 358 21 0
-361 -358 -21 0
360 24 -22 0
360 -24 22 0
-360 24 22 0
-360 -24 -22 0
362 -359 361 0
362 -359 20 0
-362 359 361 0
-362 359 20 0
362 -359 19 -22 0
362 -359 -19 22 0
-362 359 19 -22 0
-362 359 -19 22 0
362 359 -361 19 22 -20 0
362 359 -361 -19 -22 -20 0
-362 -359 -361 19 22 -20 0
-362 -359 -361 -19 -22 -20 0
364 361 -19 0
364 -361 19 0
-364 361 19 0
-364 -361 -19 0
363 22 -20 0
363 -22 20 0
-363 22 20 0
-363 -22 -20 0
365 -362 364 0
365 -362 18 0
-365 362 364 0
-365 362 18 0
365 -362 17 -20 0
365 -362 -17 20 0
-365 362 17 -20 0
-365 362 -17 20 0
365 362 -364 17 20 -18 0
365 362 -364 -17 -20 -18 0
-365 -362 -364 17 20 -18 0
-365 -362 -364 -17 -20 -18 0
367 364 -17 0
367 -364 17 0
-367 364 17 0
-367 -364 -17 0
366 20 -18 0
366 -20 18 0
-366 20 18 0
-366 -20 -18 0
368 -365 367 0
368 -365 16 0
-368 365 367 0
-368 365 16 0
368 -365 15 -18 0
368 -365 -15 18 0
-368 365 15 -18 0
-368 365 -15 18 0
368 365 -367 15 18 -16 0
368 365 -367 -15 -18 -16 0
-368 -365 -367 15 18 -16 0
-368 -365 -367 -15 -18 -16 0
370 367 -15 0
370 -367 15 0
-370 367 15 0
-370 -367 -15 0
369 18 -16 0
369 -18 16 0
-369 18 16 0
-369 -18 -16 0
371 -368 370 0
371 -368 14 0
-371 368 370 0
-371 368 14 0
371 -368 13 -16 0
371 -368 -13 16 0
-371 368 13 -16 0
-371 368 -13 16 0
371 368 -370 13 16 -14 0
371 368 -370 -13 -16 -14 0
-371 -368 -370 13 16 -14 0
-371 -368 -370 -13 -16 -14 0
373 370 -13 0
373 -370 13 0
-373 370 13 0
-373 -370 -13 0
372 16 -14 0
372 -16 14 0
-372 16 14 0
-372 -16 -14 0
374 -371 373 0
374 -371 12 0
-374 371 373 0
-374 371 12 0
374 -371 11 -14 0
374 -371 -11 14 0
-374 371 11 -14 0
-374 371 -11 14 0
374 371 -373 11 14 -12 0
374 371 -373 -11 -14 -12 0
-374 -371 -373 11 14 -12 0
-374 -371 -373 -11 -14 -12 0
376 373 -11 0
376 -373 11 0
-376 373 11 0
-376 -373 -11 0
375 14 -12 0
375 -14 12 0
-375 14 12 0
-375 -14 -12 0
377 -374 376 0
377 -374 10 0
-377 374 376 0
-377 374 10 0
377 -374 9 -12 0
377 -374 -9 12 0
-377 374 9 -12 0
-377 374 -9 12 0
377 374 -376 9 12 -10 0
377 374 -376 -9 -12 -10 0
-377 -374 -376 9 12 -10 0
-377 -374 -376 -9 -12 -10 0
379 376 -9 0
379 -376 9 0
-379 376 9 0
-379 -376 -9 0
378 12 -10 0
378 -12 10 0
-378 12 10 0
-378 -12 -10 0
380 -377 379 0
380 -377 8 0
-380 377 379 0
-380 377 8 0
380 -377 7 -10 0
380 -377 -7 10 0
-380 377 7 -10 0
-380 377 -7 10 0
380 377 -379 7 10 -8 0
380 377 -379 -7 -10 -8 0
-380 -377 -379 7 10 -8 0
-380 -377 -379 -7 -10 -8 0
382 379 -7 0
382 -379 7 0
-382 379 7 0
-382 -379 -7 0
381 10 -8 0
381 -10 8 0
-381 10 8 0
-381 -10 -8 0
383 -380 382 0
383 -380 6 0
-383 380 382 0
-383 380 6 0
383 -380 5 -8 0
383 -380 -5 8 0
-383 380 5 -8 0
-383 380 -5 8 0
383 380 -382 5 8 -6 0
383 380 -382 -5 -8 -6 0
-383 -380 -382 5 8 -6 0
-383 -380 -382 -5 -8 -6 0
385 382 -5 0
385 -382 5 0
-385 382 5 0
-385 -382 -5 0
384 8 -6 0
384 -8 6 0
-384 8 6 0
-384 -8 -6 0
386 -383 385 0
386 -383 4 0
-386 383 385 0
-386 383 4 0
386 -383 3 -6 0
386 -383 -3 6 0
-386 383 3 -6 0
-386 383 -3 6 0
386 383 -385 3 6 -4 0
386 383 -385 -3 -6 -4 0
-386 -383 -385 3 6 -4 0
-386 -383 -385 -3 -6 -4 0
388 385 -3 0
388 -385 3 0
-388 385 3 0
-388 -385 -3 0
387 6 -4 0
387 -6 4 0
-387 6 4 0
-387 -6 -4 0
389 -386 388 0
389 -386 2 0
-389 386 388 0
-389 386 2 0
389 -386 1 -4 0
389 -386 -1 4 0
-389 386 1 -4 0
-389 386 -1 4 0
389 386 -388 1 4 -2 0
389 386 -388 -1 -4 -2 0
-389 -386 -388 1 4 -2 0
-389 -386 -388 -1 -4 -2 0
391 388 -1 0
391 -388 1 0
-391 388 1 0
-391 -388 -1 0
390 4 -2 0
390 -4 2 0
-390 4 2 0
-390 -4 -2 0
